{"lblp_lower": [271.54979629787783, 347.97366840773907, 351.18649658299313, 352.63817953715596, 353.0160754393742], "cuttingPlaneBendInfo": [{"tot_cut_value": 0, "TOT_gen_cut": 0, "tot_time_opt": 0, "max_time_opt": 0}, {"tot_cut_value": 0, "TOT_gen_cut": 0, "tot_time_opt": 0, "max_time_opt": 0}, {"tot_cut_value": 0, "TOT_gen_cut": 0, "tot_time_opt": 0, "max_time_opt": 0}, {"tot_cut_value": 0, "TOT_gen_cut": 0, "tot_time_opt": 0, "max_time_opt": 0}, {"tot_cut_value": 0, "TOT_gen_cut": 0, "tot_time_opt": 0, "max_time_opt": 0}], "time_compress": [0, 0, 0, 0, 0], "ub_lp": [449.2127807083097, 386.575, 353.0964740848093, 353.0188361109097, 353.0160754393738], "prob_sizes_at_start": [{"ngGraph": 52}, {"ngGraph": 122}, {"ngGraph": 138}, {"ngGraph": 143}, {"ngGraph": 145}], "prob_sizes_after_compress": [{"ngGraph": 44}, {"ngGraph": 56}, {"ngGraph": 73}, {"ngGraph": 69}, {"ngGraph": 66}], "prob_sizes_after_split": [{"ngGraph": 122}, {"ngGraph": 138}, {"ngGraph": 143}, {"ngGraph": 145}, {"ngGraph": 91}], "did_compress": [true, true, true, true, true], "lp_time_project": [0.018683910369873047, 0.007544994354248047, 0.007175922393798828, 0.007871866226196289, 0.008099079132080078], "lp_time_LB": [0.027890920639038086, 0.033239126205444336, 0.015339136123657227, 0.015191078186035156, 0.01313018798828125], "ilp_time": [], "history_of_graphs_by_iter": [], "ROOT_LP_PRIOR_ADDING_CUTS": 353.0160754393742, "OUR_ilp_objective": 362.4000000000001, "OUR_MIP_Lower_Bound": 362.4, "OUR_ilp_time": 0.2964937686920166, "OUR_gurobi_MILP_str": "Gurobi Optimizer version 12.0.1 build v12.0.1rc0 (mac64[arm] - Darwin 24.5.0 24F74)\n\nCPU model: Apple M1\nThread count: 8 physical cores, 8 logical processors, using up to 8 threads\n\nNon-default parameters:\nTimeLimit  1000\n\nWLS license 2690165 - registered to Optym\nOptimize a model with 5476 rows, 2834 columns and 23081 nonzeros\nModel fingerprint: 0x4d7b22b6\nVariable types: 1192 continuous, 1642 integer (1642 binary)\nCoefficient statistics:\n  Matrix range     [1e-01, 6e+02]\n  Objective range  [1e+00, 6e+01]\n  Bounds range     [1e+00, 1e+03]\n  RHS range        [1e+00, 6e+02]\nPresolve removed 4559 rows and 2159 columns\nPresolve time: 0.02s\nPresolved: 917 rows, 675 columns, 7436 nonzeros\nVariable types: 225 continuous, 450 integer (450 binary)\n\nRoot relaxation: objective 3.533903e+02, 482 iterations, 0.01 seconds (0.01 work units)\n\n    Nodes    |    Current Node    |     Objective Bounds      |     Work\n Expl Unexpl |  Obj  Depth IntInf | Incumbent    BestBd   Gap | It/Node Time\n\n     0     0  353.39034    0   45          -  353.39034      -     -    0s\nH    0     0                     768.0000000  353.39034  54.0%     -    0s\nH    0     0                     685.8000000  353.39034  48.5%     -    0s\nH    0     0                     661.4000000  353.39034  46.6%     -    0s\nH    0     0                     607.1000000  353.39034  41.8%     -    0s\n     0     0  356.96751    0   18  607.10000  356.96751  41.2%     -    0s\nH    0     0                     544.2000000  357.00084  34.4%     -    0s\nH    0     0                     506.9000000  357.00084  29.6%     -    0s\n     0     0  357.00084    0   18  506.90000  357.00084  29.6%     -    0s\n     0     0  357.62309    0   49  506.90000  357.62309  29.4%     -    0s\nH    0     0                     394.8000000  357.68522  9.40%     -    0s\n     0     0  357.71444    0   44  394.80000  357.71444  9.39%     -    0s\n     0     0  357.71444    0   44  394.80000  357.71444  9.39%     -    0s\n     0     0  357.71444    0   46  394.80000  357.71444  9.39%     -    0s\nH    0     0                     393.4000000  357.71444  9.07%     -    0s\n     0     0  358.83806    0   68  393.40000  358.83806  8.79%     -    0s\nH    0     0                     392.3000000  358.98029  8.49%     -    0s\n     0     0  358.99205    0   49  392.30000  358.99205  8.49%     -    0s\n     0     0  359.00679    0   46  392.30000  359.00679  8.49%     -    0s\n     0     0  359.00679    0   46  392.30000  359.00679  8.49%     -    0s\n     0     0  359.64878    0   57  392.30000  359.64878  8.32%     -    0s\n     0     0  359.72763    0   74  392.30000  359.72763  8.30%     -    0s\n     0     0  359.73048    0   78  392.30000  359.73048  8.30%     -    0s\n     0     0  360.32110    0   55  392.30000  360.32110  8.15%     -    0s\n     0     0  360.39366    0   52  392.30000  360.39366  8.13%     -    0s\n     0     0  360.39366    0   52  392.30000  360.39366  8.13%     -    0s\n     0     0  360.42425    0   54  392.30000  360.42425  8.13%     -    0s\n     0     0  360.59093    0   61  392.30000  360.59093  8.08%     -    0s\n     0     0  360.59093    0   61  392.30000  360.59093  8.08%     -    0s\n     0     0  360.59093    0   61  392.30000  360.59093  8.08%     -    0s\n     0     0  360.59093    0   61  392.30000  360.59093  8.08%     -    0s\n     0     0  360.59093    0   61  392.30000  360.59093  8.08%     -    0s\n     0     0  360.59093    0   61  392.30000  360.59093  8.08%     -    0s\nH    0     0                     362.4000000  360.60385  0.50%     -    0s\n     0     0  360.70936    0   61  362.40000  360.70936  0.47%     -    0s\n     0     0  360.70936    0   14  362.40000  360.70936  0.47%     -    0s\n     0     0  361.42995    0   22  362.40000  361.42995  0.27%     -    0s\n     0     0     cutoff    0       362.40000  362.40000  0.00%     -    0s\n\nCutting planes:\n  Gomory: 4\n  Cover: 2\n  Implied bound: 4\n  MIR: 13\n  Relax-and-lift: 8\n\nExplored 1 nodes (1255 simplex iterations) in 0.30 seconds (0.25 work units)\nThread count was 8 (of 8 available processors)\n\nSolution count 10: 362.4 362.4 392.3 ... 685.8\n\nOptimal solution found (tolerance 1.00e-04)\nBest objective 3.624000000000e+02, best bound 3.624000000000e+02, gap 0.0000%\n", "jy_opt": {"ParetoEps": 1e-05, "turn_off_time_windows": false, "deactivate_time_graph": false, "deactivate_demand_graph": false, "epsilon": 0.0001, "weight_slack_projector": 1e-05, "weight_compress": 0.01, "num_cust_use": 50, "dem_step_sz": 1, "time_step_sz": 25, "use_compression": 1, "max_iterations_loop_compress_project": 100, "do_round_dist_times": 1, "my_shift_bet_time_win": 0.0001, "num_terms_per_bin_init_construct": 10, "allOneBig_init": 0, "min_inc_2_compress": 0.1, "save_graph_each_iter": 0, "use_Xpress": 0, "use_ineq": false, "xpress_file_loc": "/Users/julian/Documents/FICO_Xpress_Config/xpauth.xpr", "run_baseline": 0, "verbose": 0, "use_NG_graph": false, "num_NG": 5, "in_demo_mode": 0, "threshold_split": 0.01, "offset_cost_edge_project": 0, "use_classic_compress": 1, "use_classic_compress_last": 0, "num_thresh_split_projector": 10, "lplb_solver": 4, "compresss_solver": 0, "proj_solver": 4, "use_julians_custom_lp_solver": 0, "do_ilp": 1, "roundingDiscretization_num_digits_keep": 3, "doExrtraRemovalEdgesLB": 0, "use_gurobi": 1, "max_ILP_time": 1000, "use_fancy_ng_graph": 1, "use_dem_graph": false, "use_time_graph": false, "num_multiplys_demand": 0, "DEBUG_ALLOW_DUMB_EDGES": 0, "add_all_ng_split_at_end": 0, "do_split_based_init": 1, "think_compress": 0, "use_delta_in_milp": [1], "use_delta_in_lp": 1, "turn_off_non_active_fg_project": 0, "use_new_valid_ineq": 0, "digit_mult_use": 10, "use_branch_on_g": true, "LAB_MP_ON": 0, "LAB_MP_neigh_use_power": 10, "LAB_MP_num_ineq_use": 10, "do_remove_actions_from_incumbant": 1, "ub_use_remove": 362.4, "use_packing_in_construction": 1, "maxVarsAdd_in_ITER": 10, "use_ng_size_init": 0, "do_presolve": 0, "use_diving_ineq": 0, "BEND_MIN_LP_OBJECTIVE_CUT": 0.1, "BEND_USE_RAND": 0, "BEND_MAX_SIZE_CHOOSE_K": 260, "BEND_VAL_STOP_ADDING_CUTS": 100000000, "BEND_MY_SIZES_USE": [9], "NUMERICAL_BEND_OFFSET_COST_CUT": 0.0001, "NUMERICAL_BEND_EPSILON_MULT_PARETO_OBJ": 0.001, "NO_PARETO_NUMERICAL_BEND_OFFSET_COST_CUT": 0, "NO_PARETO_BEND_VAL_STOP_ADDING_CUTS": 1, "NO_PARETO_EPSILON_MAX_VAL_CON": 0.01, "BENDERS_NEIGH_SZ_USE": 9, "Actions_of_given_sol": [], "all_vars_binary": 0, "use_ng": 1, "restore_after_each_step": 1, "compress_solver": 1, "DEBUG_NG_turn_off_CLEAN": false, "max_nodes_split": Infinity}, "output_ilp_solution": {"act_0_51": 1, "act_1_0": 1, "act_2_6": 1, "act_3_1": 1, "act_4_2": 1, "act_5_3": 1, "act_6_7": 1, "act_7_9": 1, "act_8_5": 1, "act_9_10": 1, "act_10_8": 1, "act_11_51": 1, "act_12_16": 1, "act_13_11": 1, "act_14_15": 1, "act_15_13": 1, "act_16_17": 1, "act_17_18": 1, "act_18_14": 1, "act_19_23": 1, "act_20_51": 1, "act_21_20": 1, "act_22_21": 1, "act_23_24": 1, "act_24_26": 1, "act_25_22": 1, "act_26_28": 1, "act_27_25": 1, "act_28_29": 1, "act_29_27": 1, "act_30_34": 1, "act_31_32": 1, "act_32_30": 1, "act_33_51": 1, "act_34_36": 1, "act_35_33": 1, "act_36_37": 1, "act_37_38": 1, "act_38_35": 1, "act_39_43": 1, "act_40_39": 1, "act_41_40": 1, "act_42_41": 1, "act_43_44": 1, "act_44_45": 1, "act_45_47": 1, "act_46_51": 1, "act_47_49": 1, "act_48_46": 1, "act_49_48": 1, "act_50_4": 1, "act_50_12": 1, "act_50_19": 1, "act_50_31": 1, "act_50_42": 1}, "Actions_of_given_sol": "none just used source and sink terms", "actions_used": ["act_0_51", "act_1_0", "act_2_6", "act_3_1", "act_4_2", "act_5_3", "act_6_7", "act_7_9", "act_8_5", "act_9_10", "act_10_8", "act_11_51", "act_12_16", "act_13_11", "act_14_15", "act_15_13", "act_16_17", "act_17_18", "act_18_14", "act_19_23", "act_20_51", "act_21_20", "act_22_21", "act_23_24", "act_24_26", "act_25_22", "act_26_28", "act_27_25", "act_28_29", "act_29_27", "act_30_34", "act_31_32", "act_32_30", "act_33_51", "act_34_36", "act_35_33", "act_36_37", "act_37_38", "act_38_35", "act_39_43", "act_40_39", "act_41_40", "act_42_41", "act_43_44", "act_44_45", "act_45_47", "act_46_51", "act_47_49", "act_48_46", "act_49_48", "act_50_4", "act_50_12", "act_50_19", "act_50_31", "act_50_42"], "init_default_solution_is_empty": false, "objective_of_initial_sol": 2407.7999999999984, "my_paths": "[[50, 4, 2, 6, 7, 9, 10, 8, 5, 3, 1, 0, 51], [50, 12, 16, 17, 18, 14, 15, 13, 11, 51], [50, 19, 23, 24, 26, 28, 29, 27, 25, 22, 21, 20, 51], [50, 31, 32, 30, 34, 36, 37, 38, 35, 33, 51], [50, 42, 41, 40, 39, 43, 44, 45, 47, 49, 48, 46, 51]]"}